(set-logic QF_S)
(declare-fun var_0xINPUT_65092 () String)
(assert (and (= (len var_0xINPUT_65092) 0) (= (len var_0xINPUT_65092) 0) (not (= var_0xINPUT_65092 "4PH2ujcENG"))))
(check-sat var_0xINPUT_65092)